\ Model Routes
\ LP format - for model browsing. Use MPS format to capture full model detail.
Maximize
  - 191.7153353028244 R{0,0} + 623.2046552982704 R{0,1}
   + 623.2046552982704 R{0,2} - 249.2301939667805 R{0,3}
   - 17.2186063228686 R{0,4} + 1085.481438609255 R{0,5}
   + 1085.481438609255 R{0,6} + 500.2093291414617 R{0,7}
   + 852.3918860260821 R{0,8} + 523.7162476526114 R{0,9}
   + 1262.134533421747 R{0,10} + 486.6829182142316 R{0,11}
   + 1365.798341130399 R{0,12} + 1452.293809839529 R{0,13}
   + 390.4654712896277 R{0,14} + 1274.23023941762 R{0,15}
   + 139.8500386128197 R{0,16} + 705.0572009794437 R{0,17}
   + 394.4395876556298 R{0,18} + 50.21028675269167 R{0,19}
   + 943.4477753098472 R{0,20} + 596.017066846582 R{0,21}
   + 1147.476846503529 R{0,22} + 827.8992369343669 R{0,23}
   + 434.1633846344188 R{0,24} + 50.21028675269167 R{0,25}
   + 426.0462613747952 R{0,26} + 597.7911430915434 R{0,27}
   + 384.2671740395637 R{0,28} + 200.8980281492161 R{0,29}
   + 1141.676196515715 R{0,30} + 343.833611964526 R{0,31}
   + 281.9883365781351 R{0,32} + 411.3710779138357 R{0,33}
   + 1265.650964107647 R{0,34} + 409.8042800045097 R{0,35}
   + 1570.962918571451 R{0,36} + 1159.083369750138 R{0,37}
   - 256.140831891889 R{1,0} + 49.34684324404907 R{1,1}
   + 676.8345199092203 R{1,2} + 1424.808045423168 R{1,3}
   + 2310.970723240266 R{1,4} + 1442.349709458475 R{1,5}
   + 1183.111824014384 R{1,6} + 57.58777505386968 R{1,7}
   + 1500.521993837906 R{1,8} + 1437.961973958402 R{1,9}
   + 631.5179621954724 R{1,10} + 1132.37631666833 R{1,11}
   + 1337.329644859014 R{1,12} + 1180.798916864069 R{1,13}
   + 910.6701311664822 R{1,14} + 1337.329644859014 R{1,15}
   + 1180.798916864069 R{1,16} + 1337.329644859014 R{1,17}
   + 1700.407984533629 R{1,18} + 1794.419924703917 R{1,19}
   + 1038.888702639726 R{1,20} + 1089.83543354963 R{1,21}
   + 874.4109272480828 R{1,22} + 45.86721681582435 R{1,23}
   + 1234.647593687584 R{1,24} + 1087.142039929203 R{1,25}
   + 1089.83543354963 R{1,26} + 1363.002509587559 R{1,27}
   + 682.0295712870056 R{1,28} + 751.1160196238849 R{1,29}
   + 1768.386847378265 R{1,30} + 1698.713642653983 R{1,31}
   + 874.4109272480828 R{1,32} + 650.52422003373 R{1,33}
   + 874.4109272480828 R{1,34} + 1177.455966667514 R{1,35}
   + 421.1039645916886 R{1,36} + 1286.526138149667 R{1,37}
   + 1353.140616601585 R{1,38} + 1286.526138149667 R{1,39}
   + 1356.335902697271 R{1,40} + 1325.430035464132 R{1,41}
   + 1198.881248318718 R{2,0} + 1198.881248318718 R{2,1}
   - 278.4443928850388 R{2,2} - 59.13410337035452 R{2,3}
   + 602.7748664658451 R{2,4} + 1100.505917706273 R{2,5}
   + 465.2175846111744 R{2,6} + 743.2075336548222 R{2,7}
   + 1066.674349159885 R{2,8} + 343.8687336675509 R{2,9}
   + 2365.337502876282 R{2,10} + 666.4526028263224 R{2,11}
   + 448.0612590630647 R{2,12} + 386.6676338076858 R{2,13}
   + 1926.707126204673 R{2,14} + 2085.820433623839 R{2,15}
   + 774.166852893441 R{2,16} + 981.0507504042589 R{2,17}
   + 1064.761879579677 R{2,18} + 774.166852893441 R{2,19}
   + 1561.92457697342 R{2,20} + 465.2175846111744 R{2,21}
   + 1127.126554447374 R{2,22} + 1095.916403443604 R{2,23}
   + 1223.373897410434 R{2,24} + 956.5581013125436 R{2,25}
   + 1088.135177151812 R{2,26} + 1833.163348918456 R{2,27}
   - 260.2482995389823 R{3,0} + 387.9258281754088 R{3,1}
   + 1095.971940651614 R{3,2} + 509.0926394260857 R{3,3}
   + 129.7321283351852 R{3,4} + 540.2427065366273 R{3,5}
   + 200.0048294352723 R{3,6} + 805.1806600108854 R{3,7}
   + 1144.69130011549 R{3,8} + 432.7729957148356 R{3,9}
   + 1077.92550727782 R{3,10} + 842.8775739282864 R{3,11}
   + 847.1027005721869 R{3,12} + 847.1027005721869 R{3,13}
   + 407.687938960951 R{3,14} + 725.80628002242 R{3,15}
   + 847.1027005721869 R{3,16} + 1062.084911309633 R{3,17}
   - 18.35926794610077 R{3,18} + 1077.507913473147 R{3,19}
   + 787.6741995003761 R{3,20} + 407.687938960951 R{3,21}
   + 427.7658004297828 R{3,22} + 401.9370027388339 R{3,23}
   + 379.0476765185945 R{3,24} + 705.2765385042543 R{3,25}
   + 136.7288154771735 R{3,26} + 1459.976863571635 R{3,27}
   + 1056.544619765121 R{3,28} + 730.3615952581388 R{3,29}
   + 111.6856949613905 R{3,30} + 569.8692499462513 R{3,31}
   + 1034.999482973305 R{3,32} + 705.2765385042543 R{3,33}
   + 1103.754304968768 R{3,34} + 407.687938960951 R{3,35}
   + 1454.436572027123 R{3,36} + 867.4578494895545 R{3,37}
   + 430.7343940436598 R{3,38} + 432.7729957148356 R{3,39}
   + 1075.469311801971 R{3,40} + 853.6815695469618 R{3,41}
   + 401.9370027388339 R{3,42} + 813.502997191325 R{3,43}
   + 1004.424687534998 R{3,44} + 1454.436572027123 R{3,45}
   - 242.5208875955131 R{4,0} + 713.2290248010183 R{4,1}
   + 1229.138308879989 R{4,2} + 829.0296385855142 R{4,3}
   + 1064.708249167109 R{4,4} + 934.9865731836853 R{4,5}
   + 1034.084683290079 R{4,6} + 1380.720550215063 R{4,7}
   + 1163.512136531434 R{4,8} + 1403.54820394441 R{4,9}
   + 1416.460096832123 R{4,10} + 1553.819792355851 R{4,11}
   + 880.7866037877545 R{4,12} + 587.2260033298717 R{4,13}
   + 1345.377416157611 R{4,14} + 481.2690687317004 R{4,15}
   + 847.0414562523586 R{4,16} + 1019.703755304059 R{4,17}
   + 329.1235468612163 R{4,18} + 1646.659588717793 R{4,19}
   + 760.3884153678325 R{4,20} + 329.1235468612163 R{4,21}
   + 1124.190134613358 R{4,22} + 590.8993387974776 R{4,23}
   + 979.5904911520795 R{4,24} + 1539.438864369831 R{4,25}
   + 1403.54820394441 R{4,26} + 590.3946039578707 R{4,27}
   + 1094.742591175176 R{4,28} + 750.0236407189441 R{4,29}
   + 590.8993387974776 R{4,30} + 1088.730563863123 R{4,31}
   + 1397.268019567051 R{4,32} + 765.3774417082312 R{4,33}
   + 920.6340632168328 R{4,34} + 526.1850402686216 R{4,35}
   + 1267.701398251572 R{4,36} + 775.8653250835338 R{4,37}
   + 680.6871383059026 R{4,38} + 1019.703755304059 R{4,39}
   + 585.1568125072869 R{4,40} - 231.9775664337766 R{5,0}
   + 251.2011413408645 R{5,1} + 835.6653627301428 R{5,2}
   + 426.1444027885019 R{5,3} + 594.2495785219969 R{5,4}
   + 1177.337288177588 R{5,5} + 1231.450583702715 R{5,6}
   + 1325.054098861365 R{5,7} + 127.8505753705095 R{5,8}
   + 246.3877139645505 R{5,9} + 397.0782626571224 R{5,10}
   + 149.1456232466775 R{5,11} + 125.2850660497745 R{5,12}
   + 127.8505753705095 R{5,13} + 127.8505753705095 R{5,14}
   + 1101.263837273968 R{5,15} + 125.2850660497745 R{5,16}
   + 298.0987896028985 R{5,17} + 3426.933913865434 R{5,18}
   + 1134.957614797394 R{5,19} + 512.2628547865303 R{5,20}
   + 2154.541906743425 R{5,21} + 2116.294320701664 R{5,22}
   + 1650.738432929113 R{5,23} + 1124.372875501459 R{5,24}
   + 2116.294320701664 R{5,25} + 1424.515258655879 R{5,26}
   - 231.1436095783099 R{6,0} + 1370.402709432251 R{6,1}
   + 2203.660382897198 R{6,2} + 2548.258740052186 R{6,3}
   + 2134.457221554525 R{6,4} + 1437.682349001509 R{6,5}
   + 1967.869759897557 R{6,6} + 1677.41461010294 R{6,7}
   + 2163.772736323871 R{6,8} + 1623.952993645474 R{6,9}
   + 2107.716037823006 R{6,10} + 2197.520695838544 R{6,11}
   + 1730.630348591883 R{6,12} + 2345.10035308161 R{6,13}
   + 783.7958099970208 R{6,14} + 1657.164765454674 R{6,15}
   + 580.6491010495845 R{6,16} + 1648.936103221414 R{6,17}
   + 2189.410283193475 R{6,18} + 988.8437140210049 R{6,19}
   + 860.2903931826131 R{6,20} + 1531.942098165732 R{6,21}
   + 1012.581149036128 R{6,22} + 2046.276617485862 R{6,23}
   + 1739.115022518095 R{6,24} + 2189.292033605284 R{6,25}
   + 1301.863864075814 R{6,26} + 1710.049734638525 R{6,27}
   + 1486.812993936467 R{6,28} + 2059.738286142523 R{6,29}
   + 1029.817999541061 R{6,30} + 1150.625376188329 R{6,31}
   + 1726.232085892615 R{6,32} + 1313.977138097566 R{6,33}
   + 1301.863864075814 R{6,34} + 619.6609857759853 R{6,35}
   + 1017.909001900575 R{6,36} + 162.6659913805789 R{6,37}
   + 6.042433555779468 R{6,38} + 2291.167581638412 R{6,39}
   + 873.1944417162613 R{6,40} + 612.8222285651208 R{6,41}
   + 1775.361144771649 R{6,42} + 1029.345108555447 R{6,43}
   + 409.6755196176846 R{6,44} + 551.5838131700141 R{6,45}
   + 456.1986707403213 R{6,46} + 293.1128349862669 R{6,47}
   + 614.3331329115383 R{6,48} + 293.1128349862669 R{6,49}
   + 409.6755196176846 R{6,50} + 1215.727857983564 R{6,51}
   + 826.1983996080107 R{6,52} + 1293.370447740892 R{6,53}
Subject To
 R00: R{0,0} <= 1
 R01: R{0,1} <= 1
 R02: R{0,2} <= 1
 R03: R{0,3} <= 1
 R04: R{0,4} <= 1
 R05: R{0,5} <= 1
 R06: R{0,6} <= 1
 R07: R{0,7} <= 1
 R08: R{0,8} <= 1
 R09: R{0,9} <= 1
 R010: R{0,10} <= 1
 R011: R{0,11} <= 1
 R012: R{0,12} <= 1
 R013: R{0,13} <= 1
 R014: R{0,14} <= 1
 R015: R{0,15} <= 1
 R016: R{0,16} <= 1
 R017: R{0,17} <= 1
 R018: R{0,18} <= 1
 R019: R{0,19} <= 1
 R020: R{0,20} <= 1
 R021: R{0,21} <= 1
 R022: R{0,22} <= 1
 R023: R{0,23} <= 1
 R024: R{0,24} <= 1
 R025: R{0,25} <= 1
 R026: R{0,26} <= 1
 R027: R{0,27} <= 1
 R028: R{0,28} <= 1
 R029: R{0,29} <= 1
 R030: R{0,30} <= 1
 R031: R{0,31} <= 1
 R032: R{0,32} <= 1
 R033: R{0,33} <= 1
 R034: R{0,34} <= 1
 R035: R{0,35} <= 1
 R036: R{0,36} <= 1
 R037: R{0,37} <= 1
 R038: R{1,0} <= 1
 R039: R{1,1} <= 1
 R040: R{1,2} <= 1
 R041: R{1,3} <= 1
 R042: R{1,4} <= 1
 R043: R{1,5} <= 1
 R044: R{1,6} <= 1
 R045: R{1,7} <= 1
 R046: R{1,8} <= 1
 R047: R{1,9} <= 1
 R048: R{1,10} <= 1
 R049: R{1,11} <= 1
 R050: R{1,12} <= 1
 R051: R{1,13} <= 1
 R052: R{1,14} <= 1
 R053: R{1,15} <= 1
 R054: R{1,16} <= 1
 R055: R{1,17} <= 1
 R056: R{1,18} <= 1
 R057: R{1,19} <= 1
 R058: R{1,20} <= 1
 R059: R{1,21} <= 1
 R060: R{1,22} <= 1
 R061: R{1,23} <= 1
 R062: R{1,24} <= 1
 R063: R{1,25} <= 1
 R064: R{1,26} <= 1
 R065: R{1,27} <= 1
 R066: R{1,28} <= 1
 R067: R{1,29} <= 1
 R068: R{1,30} <= 1
 R069: R{1,31} <= 1
 R070: R{1,32} <= 1
 R071: R{1,33} <= 1
 R072: R{1,34} <= 1
 R073: R{1,35} <= 1
 R074: R{1,36} <= 1
 R075: R{1,37} <= 1
 R076: R{1,38} <= 1
 R077: R{1,39} <= 1
 R078: R{1,40} <= 1
 R079: R{1,41} <= 1
 R080: R{2,0} <= 1
 R081: R{2,1} <= 1
 R082: R{2,2} <= 1
 R083: R{2,3} <= 1
 R084: R{2,4} <= 1
 R085: R{2,5} <= 1
 R086: R{2,6} <= 1
 R087: R{2,7} <= 1
 R088: R{2,8} <= 1
 R089: R{2,9} <= 1
 R090: R{2,10} <= 1
 R091: R{2,11} <= 1
 R092: R{2,12} <= 1
 R093: R{2,13} <= 1
 R094: R{2,14} <= 1
 R095: R{2,15} <= 1
 R096: R{2,16} <= 1
 R097: R{2,17} <= 1
 R098: R{2,18} <= 1
 R099: R{2,19} <= 1
 R0100: R{2,20} <= 1
 R0101: R{2,21} <= 1
 R0102: R{2,22} <= 1
 R0103: R{2,23} <= 1
 R0104: R{2,24} <= 1
 R0105: R{2,25} <= 1
 R0106: R{2,26} <= 1
 R0107: R{2,27} <= 1
 R0108: R{3,0} <= 1
 R0109: R{3,1} <= 1
 R0110: R{3,2} <= 1
 R0111: R{3,3} <= 1
 R0112: R{3,4} <= 1
 R0113: R{3,5} <= 1
 R0114: R{3,6} <= 1
 R0115: R{3,7} <= 1
 R0116: R{3,8} <= 1
 R0117: R{3,9} <= 1
 R0118: R{3,10} <= 1
 R0119: R{3,11} <= 1
 R0120: R{3,12} <= 1
 R0121: R{3,13} <= 1
 R0122: R{3,14} <= 1
 R0123: R{3,15} <= 1
 R0124: R{3,16} <= 1
 R0125: R{3,17} <= 1
 R0126: R{3,18} <= 1
 R0127: R{3,19} <= 1
 R0128: R{3,20} <= 1
 R0129: R{3,21} <= 1
 R0130: R{3,22} <= 1
 R0131: R{3,23} <= 1
 R0132: R{3,24} <= 1
 R0133: R{3,25} <= 1
 R0134: R{3,26} <= 1
 R0135: R{3,27} <= 1
 R0136: R{3,28} <= 1
 R0137: R{3,29} <= 1
 R0138: R{3,30} <= 1
 R0139: R{3,31} <= 1
 R0140: R{3,32} <= 1
 R0141: R{3,33} <= 1
 R0142: R{3,34} <= 1
 R0143: R{3,35} <= 1
 R0144: R{3,36} <= 1
 R0145: R{3,37} <= 1
 R0146: R{3,38} <= 1
 R0147: R{3,39} <= 1
 R0148: R{3,40} <= 1
 R0149: R{3,41} <= 1
 R0150: R{3,42} <= 1
 R0151: R{3,43} <= 1
 R0152: R{3,44} <= 1
 R0153: R{3,45} <= 1
 R0154: R{4,0} <= 1
 R0155: R{4,1} <= 1
 R0156: R{4,2} <= 1
 R0157: R{4,3} <= 1
 R0158: R{4,4} <= 1
 R0159: R{4,5} <= 1
 R0160: R{4,6} <= 1
 R0161: R{4,7} <= 1
 R0162: R{4,8} <= 1
 R0163: R{4,9} <= 1
 R0164: R{4,10} <= 1
 R0165: R{4,11} <= 1
 R0166: R{4,12} <= 1
 R0167: R{4,13} <= 1
 R0168: R{4,14} <= 1
 R0169: R{4,15} <= 1
 R0170: R{4,16} <= 1
 R0171: R{4,17} <= 1
 R0172: R{4,18} <= 1
 R0173: R{4,19} <= 1
 R0174: R{4,20} <= 1
 R0175: R{4,21} <= 1
 R0176: R{4,22} <= 1
 R0177: R{4,23} <= 1
 R0178: R{4,24} <= 1
 R0179: R{4,25} <= 1
 R0180: R{4,26} <= 1
 R0181: R{4,27} <= 1
 R0182: R{4,28} <= 1
 R0183: R{4,29} <= 1
 R0184: R{4,30} <= 1
 R0185: R{4,31} <= 1
 R0186: R{4,32} <= 1
 R0187: R{4,33} <= 1
 R0188: R{4,34} <= 1
 R0189: R{4,35} <= 1
 R0190: R{4,36} <= 1
 R0191: R{4,37} <= 1
 R0192: R{4,38} <= 1
 R0193: R{4,39} <= 1
 R0194: R{4,40} <= 1
 R0195: R{5,0} <= 1
 R0196: R{5,1} <= 1
 R0197: R{5,2} <= 1
 R0198: R{5,3} <= 1
 R0199: R{5,4} <= 1
 R0200: R{5,5} <= 1
 R0201: R{5,6} <= 1
 R0202: R{5,7} <= 1
 R0203: R{5,8} <= 1
 R0204: R{5,9} <= 1
 R0205: R{5,10} <= 1
 R0206: R{5,11} <= 1
 R0207: R{5,12} <= 1
 R0208: R{5,13} <= 1
 R0209: R{5,14} <= 1
 R0210: R{5,15} <= 1
 R0211: R{5,16} <= 1
 R0212: R{5,17} <= 1
 R0213: R{5,18} <= 1
 R0214: R{5,19} <= 1
 R0215: R{5,20} <= 1
 R0216: R{5,21} <= 1
 R0217: R{5,22} <= 1
 R0218: R{5,23} <= 1
 R0219: R{5,24} <= 1
 R0220: R{5,25} <= 1
 R0221: R{5,26} <= 1
 R0222: R{6,0} <= 1
 R0223: R{6,1} <= 1
 R0224: R{6,2} <= 1
 R0225: R{6,3} <= 1
 R0226: R{6,4} <= 1
 R0227: R{6,5} <= 1
 R0228: R{6,6} <= 1
 R0229: R{6,7} <= 1
 R0230: R{6,8} <= 1
 R0231: R{6,9} <= 1
 R0232: R{6,10} <= 1
 R0233: R{6,11} <= 1
 R0234: R{6,12} <= 1
 R0235: R{6,13} <= 1
 R0236: R{6,14} <= 1
 R0237: R{6,15} <= 1
 R0238: R{6,16} <= 1
 R0239: R{6,17} <= 1
 R0240: R{6,18} <= 1
 R0241: R{6,19} <= 1
 R0242: R{6,20} <= 1
 R0243: R{6,21} <= 1
 R0244: R{6,22} <= 1
 R0245: R{6,23} <= 1
 R0246: R{6,24} <= 1
 R0247: R{6,25} <= 1
 R0248: R{6,26} <= 1
 R0249: R{6,27} <= 1
 R0250: R{6,28} <= 1
 R0251: R{6,29} <= 1
 R0252: R{6,30} <= 1
 R0253: R{6,31} <= 1
 R0254: R{6,32} <= 1
 R0255: R{6,33} <= 1
 R0256: R{6,34} <= 1
 R0257: R{6,35} <= 1
 R0258: R{6,36} <= 1
 R0259: R{6,37} <= 1
 R0260: R{6,38} <= 1
 R0261: R{6,39} <= 1
 R0262: R{6,40} <= 1
 R0263: R{6,41} <= 1
 R0264: R{6,42} <= 1
 R0265: R{6,43} <= 1
 R0266: R{6,44} <= 1
 R0267: R{6,45} <= 1
 R0268: R{6,46} <= 1
 R0269: R{6,47} <= 1
 R0270: R{6,48} <= 1
 R0271: R{6,49} <= 1
 R0272: R{6,50} <= 1
 R0273: R{6,51} <= 1
 R0274: R{6,52} <= 1
 R0275: R{6,53} <= 1
 R1_0: R{0,0} + R{0,1} + R{0,2} + R{0,3} + R{0,4} + R{0,5} + R{0,6}
   + R{0,7} + R{0,8} + R{0,9} + R{0,10} + R{0,11} + R{0,12} + R{0,13}
   + R{0,14} + R{0,15} + R{0,16} + R{0,17} + R{0,18} + R{0,19} + R{0,20}
   + R{0,21} + R{0,22} + R{0,23} + R{0,24} + R{0,25} + R{0,26} + R{0,27}
   + R{0,28} + R{0,29} + R{0,30} + R{0,31} + R{0,32} + R{0,33} + R{0,34}
   + R{0,35} + R{0,36} + R{0,37} <= 1
 R1_1: R{1,0} + R{1,1} + R{1,2} + R{1,3} + R{1,4} + R{1,5} + R{1,6}
   + R{1,7} + R{1,8} + R{1,9} + R{1,10} + R{1,11} + R{1,12} + R{1,13}
   + R{1,14} + R{1,15} + R{1,16} + R{1,17} + R{1,18} + R{1,19} + R{1,20}
   + R{1,21} + R{1,22} + R{1,23} + R{1,24} + R{1,25} + R{1,26} + R{1,27}
   + R{1,28} + R{1,29} + R{1,30} + R{1,31} + R{1,32} + R{1,33} + R{1,34}
   + R{1,35} + R{1,36} + R{1,37} + R{1,38} + R{1,39} + R{1,40} + R{1,41}
   <= 1
 R1_2: R{2,0} + R{2,1} + R{2,2} + R{2,3} + R{2,4} + R{2,5} + R{2,6}
   + R{2,7} + R{2,8} + R{2,9} + R{2,10} + R{2,11} + R{2,12} + R{2,13}
   + R{2,14} + R{2,15} + R{2,16} + R{2,17} + R{2,18} + R{2,19} + R{2,20}
   + R{2,21} + R{2,22} + R{2,23} + R{2,24} + R{2,25} + R{2,26} + R{2,27}
   <= 1
 R1_3: R{3,0} + R{3,1} + R{3,2} + R{3,3} + R{3,4} + R{3,5} + R{3,6}
   + R{3,7} + R{3,8} + R{3,9} + R{3,10} + R{3,11} + R{3,12} + R{3,13}
   + R{3,14} + R{3,15} + R{3,16} + R{3,17} + R{3,18} + R{3,19} + R{3,20}
   + R{3,21} + R{3,22} + R{3,23} + R{3,24} + R{3,25} + R{3,26} + R{3,27}
   + R{3,28} + R{3,29} + R{3,30} + R{3,31} + R{3,32} + R{3,33} + R{3,34}
   + R{3,35} + R{3,36} + R{3,37} + R{3,38} + R{3,39} + R{3,40} + R{3,41}
   + R{3,42} + R{3,43} + R{3,44} + R{3,45} <= 1
 R1_4: R{4,0} + R{4,1} + R{4,2} + R{4,3} + R{4,4} + R{4,5} + R{4,6}
   + R{4,7} + R{4,8} + R{4,9} + R{4,10} + R{4,11} + R{4,12} + R{4,13}
   + R{4,14} + R{4,15} + R{4,16} + R{4,17} + R{4,18} + R{4,19} + R{4,20}
   + R{4,21} + R{4,22} + R{4,23} + R{4,24} + R{4,25} + R{4,26} + R{4,27}
   + R{4,28} + R{4,29} + R{4,30} + R{4,31} + R{4,32} + R{4,33} + R{4,34}
   + R{4,35} + R{4,36} + R{4,37} + R{4,38} + R{4,39} + R{4,40} <= 1
 R1_5: R{5,0} + R{5,1} + R{5,2} + R{5,3} + R{5,4} + R{5,5} + R{5,6}
   + R{5,7} + R{5,8} + R{5,9} + R{5,10} + R{5,11} + R{5,12} + R{5,13}
   + R{5,14} + R{5,15} + R{5,16} + R{5,17} + R{5,18} + R{5,19} + R{5,20}
   + R{5,21} + R{5,22} + R{5,23} + R{5,24} + R{5,25} + R{5,26} <= 1
 R1_6: R{6,0} + R{6,1} + R{6,2} + R{6,3} + R{6,4} + R{6,5} + R{6,6}
   + R{6,7} + R{6,8} + R{6,9} + R{6,10} + R{6,11} + R{6,12} + R{6,13}
   + R{6,14} + R{6,15} + R{6,16} + R{6,17} + R{6,18} + R{6,19} + R{6,20}
   + R{6,21} + R{6,22} + R{6,23} + R{6,24} + R{6,25} + R{6,26} + R{6,27}
   + R{6,28} + R{6,29} + R{6,30} + R{6,31} + R{6,32} + R{6,33} + R{6,34}
   + R{6,35} + R{6,36} + R{6,37} + R{6,38} + R{6,39} + R{6,40} + R{6,41}
   + R{6,42} + R{6,43} + R{6,44} + R{6,45} + R{6,46} + R{6,47} + R{6,48}
   + R{6,49} + R{6,50} + R{6,51} + R{6,52} + R{6,53} <= 1
 R2_0: 7 R{5,18} + 7 R{5,21} + 7 R{5,22} + 7 R{5,23} + 7 R{5,25}
   + 7 R{5,26} <= 7
 R2_1: 10 R{0,10} + 10 R{0,13} + 10 R{0,15} + 10 R{0,17} + 10 R{0,18}
   + 10 R{0,22} + 10 R{0,30} + 10 R{0,34} + 10 R{0,36} + 10 R{1,19}
   + 10 R{1,30} + 10 R{2,10} + 10 R{2,14} + 10 R{2,15} + 10 R{2,27}
   + 10 R{3,1} + 10 R{3,2} + 10 R{3,5} + 10 R{3,7} + 10 R{3,8} + 10 R{3,9}
   + 10 R{3,10} + 10 R{3,11} + 10 R{3,12} + 10 R{3,13} + 10 R{3,14}
   + 10 R{3,15} + 10 R{3,16} + 10 R{3,17} + 10 R{3,19} + 10 R{3,21}
   + 10 R{3,22} + 10 R{3,23} + 10 R{3,25} + 10 R{3,26} + 10 R{3,27}
   + 10 R{3,28} + 10 R{3,29} + 10 R{3,31} + 10 R{3,32} + 10 R{3,33}
   + 10 R{3,34} + 10 R{3,35} + 10 R{3,36} + 10 R{3,37} + 10 R{3,38}
   + 10 R{3,39} + 10 R{3,40} + 10 R{3,41} + 10 R{3,42} + 10 R{3,44}
   + 10 R{3,45} <= 10
 R2_2: <= 0
 R2_3: 4 R{1,1} + 4 R{1,2} + 4 R{1,3} + 4 R{1,4} + 4 R{1,5} + 4 R{1,6}
   + 4 R{1,7} + 4 R{1,8} + 4 R{1,9} + 4 R{1,10} + 4 R{1,11} + 4 R{1,12}
   + 4 R{1,13} + 4 R{1,15} + 4 R{1,16} + 4 R{1,17} + 4 R{1,18} + 4 R{1,19}
   + 4 R{1,20} + 4 R{1,21} + 4 R{1,23} + 4 R{1,24} + 4 R{1,25} + 4 R{1,26}
   + 4 R{1,27} + 4 R{1,28} + 4 R{1,30} + 4 R{1,31} + 4 R{1,33} + 4 R{1,37}
   + 4 R{1,38} + 4 R{1,39} + 4 R{1,40} + 4 R{1,41} + 4 R{2,12} + 4 R{4,22}
   + 4 R{5,24} + 4 R{6,8} <= 4
 R2_4: <= 0
 R2_5: 5 R{0,4} + 5 R{0,5} + 5 R{0,6} + 5 R{5,17} <= 5
 R2_6: 10 R{0,15} + 10 R{0,34} + 10 R{4,1} + 10 R{4,2} + 10 R{4,6}
   + 10 R{4,9} + 10 R{4,11} + 10 R{4,14} + 10 R{4,16} + 10 R{4,17}
   + 10 R{4,22} + 10 R{4,25} + 10 R{4,26} + 10 R{4,27} + 10 R{4,31}
   + 10 R{4,32} + 10 R{4,36} + 10 R{4,39} + 10 R{5,3} + 10 R{5,7}
   + 10 R{5,9} + 10 R{5,10} + 10 R{5,15} + 10 R{5,19} + 10 R{6,13} <= 10
 R2_7: 6 R{1,1} + 6 R{1,7} + 6 R{1,23} <= 6
 R2_8: <= 0
 R2_9: 12 R{2,10} + 12 R{2,14} + 12 R{2,15} + 12 R{2,27} + 12 R{4,1}
   + 12 R{4,2} + 12 R{4,3} + 12 R{4,4} + 12 R{4,5} + 12 R{4,6} + 12 R{4,9}
   + 12 R{4,10} + 12 R{4,11} + 12 R{4,12} + 12 R{4,13} + 12 R{4,14}
   + 12 R{4,15} + 12 R{4,16} + 12 R{4,17} + 12 R{4,18} + 12 R{4,19}
   + 12 R{4,20} + 12 R{4,21} + 12 R{4,22} + 12 R{4,23} + 12 R{4,25}
   + 12 R{4,26} + 12 R{4,27} + 12 R{4,29} + 12 R{4,30} + 12 R{4,31}
   + 12 R{4,32} + 12 R{4,33} + 12 R{4,36} + 12 R{4,37} + 12 R{4,38}
   + 12 R{4,39} + 12 R{4,40} <= 12
 R2_10: 8 R{0,7} + 8 R{0,8} + 8 R{2,11} + 8 R{2,17} + 8 R{2,24} + 8 R{6,1}
   + 8 R{6,2} + 8 R{6,4} + 8 R{6,6} + 8 R{6,7} + 8 R{6,8} + 8 R{6,11}
   + 8 R{6,13} + 8 R{6,16} + 8 R{6,20} + 8 R{6,21} + 8 R{6,22} + 8 R{6,23}
   + 8 R{6,24} + 8 R{6,25} + 8 R{6,28} + 8 R{6,29} + 8 R{6,30} + 8 R{6,32}
   + 8 R{6,33} + 8 R{6,36} + 8 R{6,39} + 8 R{6,40} + 8 R{6,42} + 8 R{6,44}
   + 8 R{6,50} + 8 R{6,52} <= 8
 R2_11: 15 R{2,10} + 15 R{2,14} + 15 R{2,15} + 15 R{2,27} + 15 R{4,7}
   + 15 R{4,28} + 15 R{4,34} + 15 R{4,35} + 15 R{5,18} + 15 R{6,23}
   + 15 R{6,28} + 15 R{6,30} + 15 R{6,40} + 15 R{6,42} <= 15
 R2_12: <= 0
 R2_13: 8 R{1,5} + 8 R{1,8} + 8 R{1,9} + 8 R{1,10} + 8 R{1,12} + 8 R{1,14}
   + 8 R{1,15} + 8 R{1,17} + 8 R{1,18} + 8 R{1,19} + 8 R{1,21} + 8 R{1,22}
   + 8 R{1,25} + 8 R{1,26} + 8 R{1,27} + 8 R{1,28} + 8 R{1,29} + 8 R{1,30}
   + 8 R{1,31} + 8 R{1,32} + 8 R{1,33} + 8 R{1,34} + 8 R{1,35} + 8 R{1,36}
   + 8 R{1,37} + 8 R{1,38} + 8 R{1,39} + 8 R{1,40} + 8 R{1,41} <= 8
 R2_14: <= 0
 R2_15: 11 R{0,0} + 11 R{0,1} + 11 R{0,2} + 11 R{0,10} + 11 R{0,32}
   + 11 R{0,36} + 11 R{4,1} + 11 R{4,2} + 11 R{4,6} + 11 R{4,11}
   + 11 R{4,36} <= 11
 R2_16: 5 R{0,8} + 5 R{0,11} + 5 R{0,23} + 5 R{2,10} + 5 R{2,14}
   + 5 R{2,15} + 5 R{2,17} + 5 R{2,25} + 5 R{2,27} + 5 R{5,18} + 5 R{6,13}
   <= 5
 R2_17: <= 0
 R2_18: <= 0
 R2_19: 11 R{1,3} + 11 R{1,4} + 11 R{1,5} + 11 R{1,6} + 11 R{1,8}
   + 11 R{1,11} + 11 R{1,12} + 11 R{1,13} + 11 R{1,15} + 11 R{1,16}
   + 11 R{1,17} + 11 R{1,18} + 11 R{1,19} + 11 R{1,21} + 11 R{1,24}
   + 11 R{1,26} + 11 R{1,30} + 11 R{1,31} + 11 R{1,40} + 11 R{2,9}
   + 11 R{2,12} + 11 R{5,5} + 11 R{5,6} + 11 R{5,18} + 11 R{5,20}
   + 11 R{5,24} + 11 R{6,8} + 11 R{6,24} + 11 R{6,27} <= 11
 R2_20: 13 R{2,5} + 13 R{2,6} + 13 R{2,20} + 13 R{2,21} + 13 R{2,22}
   + 13 R{2,26} + 13 R{4,6} + 13 R{4,17} + 13 R{4,20} + 13 R{4,22}
   + 13 R{4,39} + 13 R{5,4} + 13 R{5,21} + 13 R{5,22} + 13 R{5,23}
   + 13 R{5,25} + 13 R{5,26} + 13 R{6,1} + 13 R{6,2} + 13 R{6,3}
   + 13 R{6,4} + 13 R{6,6} + 13 R{6,8} + 13 R{6,9} + 13 R{6,10}
   + 13 R{6,11} + 13 R{6,12} + 13 R{6,15} + 13 R{6,17} + 13 R{6,18}
   + 13 R{6,19} + 13 R{6,21} + 13 R{6,22} + 13 R{6,23} + 13 R{6,24}
   + 13 R{6,25} + 13 R{6,26} + 13 R{6,27} + 13 R{6,28} + 13 R{6,29}
   + 13 R{6,31} + 13 R{6,32} + 13 R{6,34} + 13 R{6,35} + 13 R{6,36}
   + 13 R{6,42} + 13 R{6,48} + 13 R{6,51} <= 13
 R2_21: <= 0
 R2_22: 10 R{1,4} + 10 R{1,6} + 10 R{1,24} + 10 R{2,14} + 10 R{4,29}
   + 10 R{4,33} + 10 R{5,18} <= 10
 R2_23: 14 R{0,1} + 14 R{0,2} + 14 R{0,8} + 14 R{0,11} + 14 R{0,23}
   + 14 R{0,32} + 14 R{2,0} + 14 R{2,1} + 14 R{2,16} + 14 R{2,19}
   + 14 R{2,24} + 14 R{6,2} + 14 R{6,3} + 14 R{6,4} + 14 R{6,6} + 14 R{6,7}
   + 14 R{6,10} + 14 R{6,13} + 14 R{6,18} + 14 R{6,32} + 14 R{6,39} <= 14
 R2_24: 10 R{0,15} + 10 R{0,33} + 10 R{0,34} + 10 R{0,36} + 10 R{1,27}
   + 10 R{2,10} + 10 R{2,14} + 10 R{2,26} + 10 R{3,1} + 10 R{3,2}
   + 10 R{3,3} + 10 R{3,4} + 10 R{3,6} + 10 R{3,7} + 10 R{3,8} + 10 R{3,9}
   + 10 R{3,10} + 10 R{3,12} + 10 R{3,13} + 10 R{3,14} + 10 R{3,16}
   + 10 R{3,17} + 10 R{3,18} + 10 R{3,19} + 10 R{3,20} + 10 R{3,21}
   + 10 R{3,22} + 10 R{3,23} + 10 R{3,24} + 10 R{3,25} + 10 R{3,27}
   + 10 R{3,28} + 10 R{3,29} + 10 R{3,30} + 10 R{3,32} + 10 R{3,33}
   + 10 R{3,34} + 10 R{3,35} + 10 R{3,36} + 10 R{3,38} + 10 R{3,39}
   + 10 R{3,40} + 10 R{3,42} + 10 R{3,43} + 10 R{3,44} + 10 R{3,45}
   + 10 R{5,6} + 10 R{5,18} + 10 R{5,24} + 10 R{6,13} + 10 R{6,33}
   + 10 R{6,39} <= 10
 R2_25: <= 13
 R2_26: 6 R{0,12} + 6 R{0,14} + 6 R{0,20} + 6 R{0,31} + 6 R{0,35}
   + 6 R{3,17} + 6 R{3,28} + 6 R{4,9} + 6 R{4,14} + 6 R{4,26} + 6 R{4,31}
   + 6 R{4,32} + 6 R{5,1} + 6 R{5,2} + 6 R{5,3} + 6 R{5,4} + 6 R{5,5}
   + 6 R{5,7} + 6 R{5,8} + 6 R{5,10} + 6 R{5,11} + 6 R{5,12} + 6 R{5,13}
   + 6 R{5,14} + 6 R{5,16} + 6 R{5,17} + 6 R{5,19} + 6 R{5,21} + 6 R{5,22}
   + 6 R{5,23} + 6 R{5,25} + 6 R{5,26} <= 6
 R2_27: 5 R{0,5} + 5 R{0,6} + 5 R{0,10} + 5 R{0,12} + 5 R{0,13} + 5 R{0,15}
   + 5 R{0,17} + 5 R{0,18} + 5 R{0,21} + 5 R{0,22} + 5 R{0,27} + 5 R{0,28}
   + 5 R{0,30} + 5 R{0,33} + 5 R{0,34} + 5 R{0,36} + 5 R{0,37} + 5 R{1,3}
   + 5 R{1,4} + 5 R{1,6} + 5 R{1,8} + 5 R{1,9} + 5 R{1,11} + 5 R{1,13}
   + 5 R{1,16} + 5 R{1,20} + 5 R{1,24} + 5 R{1,25} + 5 R{1,27} + 5 R{1,38}
   + 5 R{2,10} + 5 R{2,14} + 5 R{2,15} + 5 R{2,18} + 5 R{2,20} + 5 R{2,23}
   + 5 R{2,26} + 5 R{2,27} + 5 R{3,5} + 5 R{3,7} + 5 R{3,8} + 5 R{3,12}
   + 5 R{3,13} + 5 R{3,16} + 5 R{3,17} + 5 R{3,27} + 5 R{3,28} + 5 R{3,31}
   + 5 R{3,32} + 5 R{3,36} + 5 R{3,37} + 5 R{3,41} + 5 R{3,45} + 5 R{4,5}
   + 5 R{4,7} + 5 R{4,13} + 5 R{4,28} + 5 R{4,34} + 5 R{4,38} + 5 R{5,6}
   + 5 R{5,18} + 5 R{5,21} + 5 R{5,22} + 5 R{5,24} + 5 R{5,25} + 5 R{5,26}
   + 5 R{6,1} + 5 R{6,2} + 5 R{6,3} + 5 R{6,4} + 5 R{6,6} + 5 R{6,8}
   + 5 R{6,9} + 5 R{6,11} + 5 R{6,13} + 5 R{6,21} + 5 R{6,23} + 5 R{6,24}
   + 5 R{6,25} + 5 R{6,27} + 5 R{6,33} + 5 R{6,39} + 5 R{6,43} + 5 R{6,52}
   <= 5
 R2_28: <= 0
 R2_29: <= 0
 R2_30: <= 0
 R2_31: 6 R{3,27} + 6 R{3,36} + 6 R{3,45} <= 6
 R2_32: 7 R{5,1} + 7 R{5,2} + 7 R{5,3} + 7 R{5,4} + 7 R{5,5} + 7 R{5,6}
   + 7 R{5,7} + 7 R{5,8} + 7 R{5,9} + 7 R{5,10} + 7 R{5,11} + 7 R{5,12}
   + 7 R{5,13} + 7 R{5,14} + 7 R{5,15} + 7 R{5,16} + 7 R{5,17} + 7 R{5,18}
   + 7 R{5,20} + 7 R{5,21} + 7 R{5,22} + 7 R{5,23} + 7 R{5,25} + 7 R{5,26}
   <= 7
 R2_33: 12 R{3,6} + 12 R{4,7} + 12 R{4,28} + 12 R{4,34} + 12 R{4,35}
   + 12 R{5,7} + 12 R{5,15} + 12 R{5,19} + 12 R{5,21} + 12 R{5,22}
   + 12 R{5,23} + 12 R{5,25} + 12 R{5,26} <= 12
 R2_34: 5 R{0,10} + 5 R{0,36} + 5 R{1,3} + 5 R{1,4} + 5 R{1,5} + 5 R{1,8}
   + 5 R{1,9} + 5 R{1,10} + 5 R{1,11} + 5 R{1,12} + 5 R{1,13} + 5 R{1,14}
   + 5 R{1,15} + 5 R{1,16} + 5 R{1,17} + 5 R{1,18} + 5 R{1,19} + 5 R{1,20}
   + 5 R{1,21} + 5 R{1,22} + 5 R{1,25} + 5 R{1,26} + 5 R{1,27} + 5 R{1,28}
   + 5 R{1,29} + 5 R{1,30} + 5 R{1,31} + 5 R{1,32} + 5 R{1,33} + 5 R{1,34}
   + 5 R{1,35} + 5 R{1,36} + 5 R{1,37} + 5 R{1,38} + 5 R{1,39} + 5 R{1,40}
   + 5 R{1,41} + 5 R{2,10} + 5 R{2,15} + 5 R{3,32} + 5 R{4,9} + 5 R{4,14}
   + 5 R{4,16} + 5 R{4,23} + 5 R{4,26} + 5 R{4,30} + 5 R{4,32} <= 5
 R2_35: 13 R{0,14} + 13 R{0,21} + 13 R{0,27} + 13 R{0,28} + 13 R{0,29}
   + 13 R{0,35} + 13 R{1,5} + 13 R{1,8} + 13 R{1,9} + 13 R{1,13}
   + 13 R{1,16} + 13 R{1,19} + 13 R{1,21} + 13 R{1,25} + 13 R{1,26}
   + 13 R{1,27} + 13 R{1,28} + 13 R{1,30} + 13 R{1,35} + 13 R{5,7}
   + 13 R{5,19} + 13 R{5,21} <= 13
 R2_36: <= 0
 R2_37: 5 R{3,1} + 5 R{3,2} + 5 R{3,3} + 5 R{3,4} + 5 R{3,5} + 5 R{3,7}
   + 5 R{3,8} + 5 R{3,9} + 5 R{3,10} + 5 R{3,11} + 5 R{3,12} + 5 R{3,13}
   + 5 R{3,14} + 5 R{3,16} + 5 R{3,17} + 5 R{3,19} + 5 R{3,20} + 5 R{3,21}
   + 5 R{3,22} + 5 R{3,23} + 5 R{3,25} + 5 R{3,26} + 5 R{3,27} + 5 R{3,28}
   + 5 R{3,29} + 5 R{3,30} + 5 R{3,31} + 5 R{3,32} + 5 R{3,33} + 5 R{3,34}
   + 5 R{3,35} + 5 R{3,36} + 5 R{3,37} + 5 R{3,38} + 5 R{3,39} + 5 R{3,40}
   + 5 R{3,41} + 5 R{3,42} + 5 R{3,43} + 5 R{3,44} + 5 R{3,45} + 5 R{4,7}
   + 5 R{4,28} <= 5
 R2_38: <= 0
 R2_39: <= 0
 R2_40: 15 R{2,3} + 15 R{2,4} + 15 R{2,5} + 15 R{2,6} + 15 R{2,9}
   + 15 R{2,12} + 15 R{2,18} + 15 R{2,20} + 15 R{2,21} + 15 R{2,22}
   + 15 R{2,23} + 15 R{2,26} <= 15
 R2_41: 5 R{0,9} + 5 R{1,4} + 5 R{1,22} + 5 R{1,29} + 5 R{1,32} + 5 R{1,34}
   + 5 R{2,10} + 5 R{2,14} + 5 R{2,15} + 5 R{2,27} + 5 R{3,3} + 5 R{3,24}
   + 5 R{4,4} + 5 R{4,8} + 5 R{4,10} + 5 R{4,12} + 5 R{4,19} + 5 R{4,24}
   + 5 R{4,37} + 5 R{4,40} + 5 R{6,4} + 5 R{6,5} + 5 R{6,6} + 5 R{6,7}
   + 5 R{6,8} + 5 R{6,13} + 5 R{6,20} + 5 R{6,21} + 5 R{6,24} + 5 R{6,27}
   + 5 R{6,32} <= 5
 R2_42: 4 R{2,3} + 4 R{2,4} + 4 R{2,5} + 4 R{2,6} + 4 R{2,9} + 4 R{2,12}
   + 4 R{2,18} + 4 R{2,20} + 4 R{2,21} + 4 R{2,22} + 4 R{2,23} + 4 R{2,26}
   <= 4
 R2_43: <= 0
 R2_44: <= 0
 R2_45: <= 0
 R2_46: 9 R{0,10} + 9 R{0,36} + 9 R{2,8} + 9 R{2,11} + 9 R{2,17}
   + 9 R{2,25} + 9 R{4,3} + 9 R{4,4} + 9 R{4,5} + 9 R{4,8} + 9 R{4,10}
   + 9 R{4,12} + 9 R{4,19} + 9 R{4,24} + 9 R{4,29} + 9 R{4,33} + 9 R{4,37}
   + 9 R{4,38} + 9 R{4,40} + 9 R{6,7} + 9 R{6,13} + 9 R{6,42} <= 9
 R2_47: 7 R{5,1} + 7 R{5,2} + 7 R{5,3} + 7 R{5,9} + 7 R{5,11} + 7 R{5,17}
   <= 7
 R2_48: 4 R{1,35} + 4 R{4,1} + 4 R{4,2} + 4 R{4,3} + 4 R{4,4} + 4 R{4,5}
   + 4 R{4,6} + 4 R{4,8} + 4 R{4,9} + 4 R{4,10} + 4 R{4,11} + 4 R{4,12}
   + 4 R{4,13} + 4 R{4,14} + 4 R{4,15} + 4 R{4,16} + 4 R{4,17} + 4 R{4,18}
   + 4 R{4,19} + 4 R{4,20} + 4 R{4,21} + 4 R{4,22} + 4 R{4,23} + 4 R{4,24}
   + 4 R{4,25} + 4 R{4,26} + 4 R{4,27} + 4 R{4,29} + 4 R{4,30} + 4 R{4,31}
   + 4 R{4,32} + 4 R{4,33} + 4 R{4,36} + 4 R{4,37} + 4 R{4,38} + 4 R{4,39}
   <= 4
 R2_49: <= 0
 R2_50: <= 0
 R2_51: 11 R{4,1} + 11 R{4,3} + 11 R{4,9} + 11 R{4,14} + 11 R{4,15}
   + 11 R{4,16} + 11 R{4,23} + 11 R{4,26} + 11 R{4,27} + 11 R{4,30}
   + 11 R{4,31} + 11 R{4,32} <= 11
 R2_52: 10 R{4,7} + 10 R{4,28} + 10 R{4,34} + 10 R{4,35} <= 10
 R2_53: 13 R{4,1} + 13 R{4,2} + 13 R{4,3} + 13 R{4,4} + 13 R{4,6}
   + 13 R{4,11} + 13 R{4,12} + 13 R{4,15} + 13 R{4,17} + 13 R{4,18}
   + 13 R{4,20} + 13 R{4,21} + 13 R{4,22} + 13 R{4,25} + 13 R{4,36}
   + 13 R{4,39} <= 13
 R2_54: <= 9
 R2_55: 8 R{3,27} + 8 R{3,36} + 8 R{3,45} + 8 R{6,1} + 8 R{6,2} + 8 R{6,3}
   + 8 R{6,4} + 8 R{6,5} + 8 R{6,9} + 8 R{6,10} + 8 R{6,11} + 8 R{6,12}
   + 8 R{6,14} + 8 R{6,15} + 8 R{6,16} + 8 R{6,17} + 8 R{6,18} + 8 R{6,19}
   + 8 R{6,22} + 8 R{6,23} + 8 R{6,25} + 8 R{6,26} + 8 R{6,28} + 8 R{6,29}
   + 8 R{6,30} + 8 R{6,31} + 8 R{6,32} + 8 R{6,33} + 8 R{6,34} + 8 R{6,35}
   + 8 R{6,36} + 8 R{6,37} + 8 R{6,38} + 8 R{6,39} + 8 R{6,40} + 8 R{6,41}
   + 8 R{6,42} + 8 R{6,43} + 8 R{6,44} + 8 R{6,45} + 8 R{6,46} + 8 R{6,48}
   + 8 R{6,50} + 8 R{6,51} + 8 R{6,52} + 8 R{6,53} <= 8
 R2_56: 6 R{0,7} + 6 R{0,9} + 6 R{0,16} + 6 R{1,4} + 6 R{1,18} + 6 R{1,19}
   + 6 R{1,30} + 6 R{1,31} + 6 R{1,37} + 6 R{1,39} + 6 R{1,41} + 6 R{2,0}
   + 6 R{2,1} + 6 R{2,7} + 6 R{2,8} + 6 R{2,10} + 6 R{2,15} + 6 R{2,24}
   + 6 R{2,27} + 6 R{3,19} + 6 R{3,40} + 6 R{3,44} + 6 R{4,10} + 6 R{6,2}
   + 6 R{6,3} + 6 R{6,5} + 6 R{6,7} + 6 R{6,11} + 6 R{6,12} + 6 R{6,18}
   + 6 R{6,20} + 6 R{6,23} + 6 R{6,25} + 6 R{6,28} + 6 R{6,30} + 6 R{6,39}
   + 6 R{6,40} + 6 R{6,42} + 6 R{6,53} <= 6
 R2_57: <= 0
 R2_58: 15 R{5,18} <= 15
 R2_59: <= 10
 R2_60: 13 R{5,18} <= 13
 R2_61: 9 R{0,10} + 9 R{0,14} + 9 R{0,21} + 9 R{0,27} + 9 R{0,28}
   + 9 R{0,29} + 9 R{0,31} + 9 R{0,35} + 9 R{0,36} + 9 R{1,5} + 9 R{1,8}
   + 9 R{1,9} + 9 R{1,10} + 9 R{1,12} + 9 R{1,14} + 9 R{1,15} + 9 R{1,17}
   + 9 R{1,18} + 9 R{1,21} + 9 R{1,22} + 9 R{1,25} + 9 R{1,26} + 9 R{1,27}
   + 9 R{1,28} + 9 R{1,29} + 9 R{1,31} + 9 R{1,32} + 9 R{1,33} + 9 R{1,34}
   + 9 R{1,35} + 9 R{1,36} + 9 R{1,37} + 9 R{1,38} + 9 R{1,39} + 9 R{1,40}
   + 9 R{1,41} + 9 R{2,7} + 9 R{2,13} + 9 R{4,7} + 9 R{4,8} + 9 R{4,24}
   + 9 R{4,28} + 9 R{4,34} + 9 R{4,35} + 9 R{6,9} + 9 R{6,11} + 9 R{6,14}
   + 9 R{6,25} + 9 R{6,33} + 9 R{6,41} + 9 R{6,43} + 9 R{6,46} + 9 R{6,47}
   + 9 R{6,49} + 9 R{6,51} <= 9
 R2_62: <= 0
 R2_63: <= 0
 R2_64: <= 0
 R2_65: 5 R{2,0} + 5 R{2,1} + 5 R{2,8} + 5 R{2,11} + 5 R{2,16} + 5 R{2,17}
   + 5 R{2,19} + 5 R{2,24} + 5 R{2,25} + 5 R{5,18} + 5 R{6,1} + 5 R{6,2}
   + 5 R{6,3} + 5 R{6,4} + 5 R{6,6} + 5 R{6,8} + 5 R{6,9} + 5 R{6,10}
   + 5 R{6,11} + 5 R{6,12} + 5 R{6,14} + 5 R{6,15} + 5 R{6,16} + 5 R{6,17}
   + 5 R{6,18} + 5 R{6,19} + 5 R{6,21} + 5 R{6,22} + 5 R{6,23} + 5 R{6,24}
   + 5 R{6,25} + 5 R{6,26} + 5 R{6,27} + 5 R{6,28} + 5 R{6,29} + 5 R{6,30}
   + 5 R{6,31} + 5 R{6,32} + 5 R{6,33} + 5 R{6,34} + 5 R{6,36} + 5 R{6,39}
   + 5 R{6,40} + 5 R{6,41} + 5 R{6,43} + 5 R{6,44} + 5 R{6,45} + 5 R{6,46}
   + 5 R{6,47} + 5 R{6,49} + 5 R{6,50} + 5 R{6,51} + 5 R{6,52} + 5 R{6,53}
   <= 5
 R2_66: 7 R{5,18} + 7 R{6,1} + 7 R{6,2} + 7 R{6,3} + 7 R{6,4} + 7 R{6,5}
   + 7 R{6,6} + 7 R{6,7} + 7 R{6,9} + 7 R{6,10} + 7 R{6,11} + 7 R{6,12}
   + 7 R{6,13} + 7 R{6,14} + 7 R{6,15} + 7 R{6,16} + 7 R{6,17} + 7 R{6,18}
   + 7 R{6,19} + 7 R{6,20} + 7 R{6,21} + 7 R{6,22} + 7 R{6,23} + 7 R{6,25}
   + 7 R{6,26} + 7 R{6,29} + 7 R{6,32} + 7 R{6,34} + 7 R{6,36} + 7 R{6,42}
   + 7 R{6,45} + 7 R{6,51} + 7 R{6,53} <= 7
 R2_67: 3 R{0,1} + 3 R{0,2} + 3 R{0,7} + 3 R{0,8} + 3 R{0,23} + 3 R{1,5}
   + 3 R{1,9} + 3 R{1,14} + 3 R{1,35} + 3 R{2,0} + 3 R{2,1} + 3 R{2,7}
   + 3 R{2,8} + 3 R{2,11} + 3 R{2,13} + 3 R{2,16} + 3 R{2,17} + 3 R{2,19}
   + 3 R{2,24} + 3 R{2,25} + 3 R{4,9} + 3 R{4,26} + 3 R{4,32} + 3 R{6,3}
   + 3 R{6,5} + 3 R{6,10} + 3 R{6,12} + 3 R{6,15} + 3 R{6,17} + 3 R{6,18}
   + 3 R{6,39} + 3 R{6,53} <= 3
 R2_68: 6 R{1,1} + 6 R{1,2} + 6 R{1,3} + 6 R{1,4} + 6 R{1,5} + 6 R{1,6}
   + 6 R{1,7} + 6 R{1,8} + 6 R{1,9} + 6 R{1,10} + 6 R{1,11} + 6 R{1,12}
   + 6 R{1,13} + 6 R{1,14} + 6 R{1,15} + 6 R{1,16} + 6 R{1,17} + 6 R{1,18}
   + 6 R{1,19} + 6 R{1,20} + 6 R{1,21} + 6 R{1,23} + 6 R{1,24} + 6 R{1,25}
   + 6 R{1,26} + 6 R{1,27} + 6 R{1,28} + 6 R{1,30} + 6 R{1,31} + 6 R{1,33}
   + 6 R{1,35} + 6 R{1,37} + 6 R{1,38} + 6 R{1,39} + 6 R{1,40} + 6 R{1,41}
   + 6 R{5,18} <= 6
 R2_69: 7 R{0,14} + 7 R{0,21} + 7 R{0,27} + 7 R{0,29} + 7 R{0,31}
   + 7 R{0,35} + 7 R{4,1} + 7 R{4,2} + 7 R{4,3} + 7 R{4,4} + 7 R{4,5}
   + 7 R{4,6} + 7 R{4,8} + 7 R{4,9} + 7 R{4,10} + 7 R{4,11} + 7 R{4,13}
   + 7 R{4,14} + 7 R{4,15} + 7 R{4,16} + 7 R{4,17} + 7 R{4,18} + 7 R{4,19}
   + 7 R{4,20} + 7 R{4,21} + 7 R{4,22} + 7 R{4,23} + 7 R{4,25} + 7 R{4,26}
   + 7 R{4,27} + 7 R{4,29} + 7 R{4,30} + 7 R{4,31} + 7 R{4,32} + 7 R{4,33}
   + 7 R{4,36} + 7 R{4,39} + 7 R{5,6} + 7 R{5,20} + 7 R{5,24} <= 7
 R2_70: 11 R{1,1} + 11 R{1,2} + 11 R{1,7} <= 11
 R2_71: 7 R{1,3} + 7 R{1,5} + 7 R{1,8} + 7 R{1,9} + 7 R{1,10} + 7 R{1,11}
   + 7 R{1,12} + 7 R{1,13} + 7 R{1,14} + 7 R{1,15} + 7 R{1,16} + 7 R{1,17}
   + 7 R{1,18} + 7 R{1,19} + 7 R{1,20} + 7 R{1,21} + 7 R{1,22} + 7 R{1,25}
   + 7 R{1,26} + 7 R{1,27} + 7 R{1,28} + 7 R{1,30} + 7 R{1,31} + 7 R{1,32}
   + 7 R{1,33} + 7 R{1,34} + 7 R{1,35} + 7 R{1,36} + 7 R{1,37} + 7 R{1,38}
   + 7 R{1,39} + 7 R{1,40} + 7 R{1,41} + 7 R{6,1} + 7 R{6,2} + 7 R{6,3}
   + 7 R{6,4} + 7 R{6,5} + 7 R{6,6} + 7 R{6,7} + 7 R{6,8} + 7 R{6,9}
   + 7 R{6,10} + 7 R{6,12} + 7 R{6,14} + 7 R{6,15} + 7 R{6,16} + 7 R{6,17}
   + 7 R{6,18} + 7 R{6,19} + 7 R{6,20} + 7 R{6,21} + 7 R{6,22} + 7 R{6,23}
   + 7 R{6,24} + 7 R{6,26} + 7 R{6,27} + 7 R{6,28} + 7 R{6,29} + 7 R{6,30}
   + 7 R{6,31} + 7 R{6,32} + 7 R{6,33} + 7 R{6,34} + 7 R{6,35} + 7 R{6,36}
   + 7 R{6,37} + 7 R{6,39} + 7 R{6,41} + 7 R{6,42} + 7 R{6,43} + 7 R{6,44}
   + 7 R{6,45} + 7 R{6,48} + 7 R{6,50} + 7 R{6,51} + 7 R{6,52} + 7 R{6,53}
   <= 7
 R2_72: <= 0
 R2_73: <= 0
 R2_74: 5 R{5,1} + 5 R{5,17} <= 5
 R2_75: 8 R{6,1} + 8 R{6,2} + 8 R{6,3} + 8 R{6,5} + 8 R{6,9} + 8 R{6,10}
   + 8 R{6,11} + 8 R{6,12} + 8 R{6,14} + 8 R{6,15} + 8 R{6,16} + 8 R{6,17}
   + 8 R{6,18} + 8 R{6,19} + 8 R{6,22} + 8 R{6,23} + 8 R{6,25} + 8 R{6,26}
   + 8 R{6,28} + 8 R{6,29} + 8 R{6,30} + 8 R{6,31} + 8 R{6,33} + 8 R{6,34}
   + 8 R{6,35} + 8 R{6,36} + 8 R{6,37} + 8 R{6,38} + 8 R{6,39} + 8 R{6,40}
   + 8 R{6,41} + 8 R{6,42} + 8 R{6,43} + 8 R{6,44} + 8 R{6,45} + 8 R{6,46}
   + 8 R{6,47} + 8 R{6,48} + 8 R{6,49} + 8 R{6,50} + 8 R{6,51} + 8 R{6,52}
   + 8 R{6,53} <= 8
 R2_76: 12 R{0,4} + 12 R{0,5} + 12 R{0,6} + 12 R{0,12} + 12 R{0,13}
   + 12 R{0,15} + 12 R{0,17} + 12 R{0,19} + 12 R{0,20} + 12 R{0,25}
   + 12 R{0,34} + 12 R{0,37} + 12 R{1,3} + 12 R{1,4} + 12 R{1,6}
   + 12 R{1,12} + 12 R{1,15} + 12 R{1,17} + 12 R{1,18} + 12 R{1,19}
   + 12 R{1,20} + 12 R{1,24} + 12 R{1,30} + 12 R{1,31} + 12 R{1,37}
   + 12 R{1,38} + 12 R{1,39} + 12 R{1,40} + 12 R{1,41} + 12 R{3,8}
   + 12 R{3,19} + 12 R{3,25} + 12 R{3,27} + 12 R{3,29} + 12 R{3,33}
   + 12 R{3,36} + 12 R{3,37} + 12 R{3,40} + 12 R{3,41} + 12 R{3,44}
   + 12 R{3,45} + 12 R{4,7} + 12 R{4,11} + 12 R{4,14} + 12 R{4,25}
   + 12 R{4,31} + 12 R{6,8} + 12 R{6,10} + 12 R{6,11} + 12 R{6,15}
   + 12 R{6,17} + 12 R{6,25} + 12 R{6,26} + 12 R{6,29} + 12 R{6,31}
   + 12 R{6,34} <= 12
 R2_77: 7 R{0,5} + 7 R{0,6} + 7 R{0,12} + 7 R{0,13} + 7 R{0,20} + 7 R{0,22}
   + 7 R{0,24} + 7 R{0,26} + 7 R{0,30} + 7 R{0,37} + 7 R{1,2} + 7 R{2,4}
   + 7 R{2,5} + 7 R{2,18} + 7 R{2,20} + 7 R{2,22} + 7 R{2,23} + 7 R{3,2}
   + 7 R{3,10} + 7 R{3,11} + 7 R{3,15} + 7 R{3,20} + 7 R{3,34} + 7 R{3,43}
   + 7 R{4,2} + 7 R{4,11} + 7 R{4,19} + 7 R{4,25} + 7 R{4,36} + 7 R{5,2}
   + 7 R{5,5} + 7 R{5,7} + 7 R{5,15} + 7 R{5,18} + 7 R{5,19} + 7 R{5,21}
   + 7 R{5,22} + 7 R{5,23} + 7 R{5,25} + 7 R{6,29} <= 7
Bounds
End
